p edge 600 1537
e 1 131
e 1 149
e 1 219
e 1 234
e 1 263
e 1 302
e 1 352
e 1 394
e 1 405
e 1 410
e 1 428
e 1 467
e 1 501
e 1 514
e 1 533
e 1 550
e 1 598
e 2 106
e 2 107
e 2 109
e 2 122
e 2 142
e 2 193
e 2 218
e 2 228
e 2 307
e 2 392
e 2 466
e 2 503
e 2 514
e 3 124
e 3 127
e 3 285
e 3 320
e 3 349
e 3 385
e 3 418
e 3 457
e 3 500
e 3 579
e 4 185
e 4 204
e 4 218
e 4 249
e 4 285
e 4 296
e 4 315
e 4 350
e 4 387
e 4 397
e 4 441
e 4 503
e 4 504
e 4 523
e 4 547
e 4 571
e 4 581
e 5 107
e 5 122
e 5 143
e 5 186
e 5 209
e 5 246
e 5 347
e 5 381
e 5 399
e 5 533
e 5 534
e 5 549
e 5 550
e 6 200
e 6 203
e 6 296
e 6 312
e 6 323
e 6 328
e 6 332
e 6 335
e 6 382
e 6 459
e 6 461
e 6 583
e 7 125
e 7 153
e 7 184
e 7 196
e 7 225
e 7 268
e 7 282
e 7 292
e 7 351
e 7 393
e 7 404
e 8 102
e 8 123
e 8 222
e 8 224
e 8 243
e 8 254
e 8 262
e 8 321
e 8 358
e 8 377
e 8 422
e 8 447
e 8 492
e 8 548
e 9 109
e 9 149
e 9 211
e 9 251
e 9 325
e 9 359
e 9 364
e 9 394
e 9 406
e 9 451
e 9 453
e 9 459
e 9 499
e 9 549
e 9 558
e 9 585
e 10 112
e 10 190
e 10 217
e 10 296
e 10 350
e 10 433
e 10 503
e 10 515
e 10 518
e 10 550
e 11 139
e 11 149
e 11 151
e 11 175
e 11 184
e 11 231
e 11 261
e 11 344
e 11 356
e 11 366
e 11 377
e 11 397
e 11 468
e 11 469
e 11 486
e 11 565
e 11 572
e 12 254
e 12 263
e 12 279
e 12 331
e 12 332
e 12 349
e 12 357
e 12 455
e 12 513
e 13 118
e 13 153
e 13 166
e 13 225
e 13 250
e 13 252
e 13 255
e 13 274
e 13 318
e 13 357
e 13 429
e 13 451
e 13 524
e 13 544
e 13 552
e 13 585
e 13 596
e 14 144
e 14 163
e 14 205
e 14 232
e 14 279
e 14 328
e 14 403
e 14 438
e 14 501
e 14 516
e 14 560
e 15 121
e 15 154
e 15 177
e 15 201
e 15 223
e 15 337
e 15 369
e 15 377
e 15 410
e 15 425
e 15 436
e 15 445
e 15 458
e 15 477
e 15 483
e 15 494
e 15 510
e 15 520
e 15 554
e 15 581
e 15 587
e 16 119
e 16 138
e 16 179
e 16 213
e 16 254
e 16 260
e 16 281
e 16 305
e 16 351
e 16 369
e 16 459
e 16 495
e 16 503
e 16 517
e 16 542
e 17 299
e 17 325
e 17 329
e 17 391
e 17 392
e 17 428
e 17 444
e 17 456
e 17 503
e 17 515
e 17 525
e 17 582
e 17 594
e 18 112
e 18 119
e 18 134
e 18 139
e 18 214
e 18 266
e 18 316
e 18 352
e 18 356
e 18 383
e 18 392
e 18 397
e 18 409
e 18 526
e 18 551
e 19 120
e 19 127
e 19 164
e 19 201
e 19 209
e 19 213
e 19 217
e 19 264
e 19 308
e 19 320
e 19 419
e 19 424
e 19 570
e 19 585
e 19 590
e 20 125
e 20 160
e 20 205
e 20 303
e 20 338
e 20 342
e 20 360
e 20 389
e 20 393
e 20 401
e 20 416
e 20 431
e 20 480
e 20 584
e 21 131
e 21 136
e 21 211
e 21 238
e 21 291
e 21 300
e 21 305
e 21 358
e 21 394
e 21 425
e 21 426
e 21 433
e 21 463
e 21 520
e 21 560
e 21 588
e 22 128
e 22 180
e 22 182
e 22 185
e 22 221
e 22 237
e 22 242
e 22 249
e 22 261
e 22 263
e 22 304
e 22 325
e 22 329
e 22 374
e 22 385
e 22 406
e 22 459
e 22 529
e 22 564
e 23 239
e 23 270
e 23 285
e 23 302
e 23 348
e 23 392
e 23 419
e 23 421
e 23 452
e 23 459
e 23 512
e 23 554
e 23 599
e 24 179
e 24 211
e 24 225
e 24 243
e 24 303
e 24 388
e 24 469
e 24 471
e 24 480
e 24 511
e 24 518
e 24 550
e 24 558
e 24 570
e 24 576
e 24 579
e 24 580
e 24 594
e 25 134
e 25 172
e 25 212
e 25 250
e 25 262
e 25 287
e 25 297
e 25 309
e 25 319
e 25 365
e 25 502
e 26 102
e 26 117
e 26 147
e 26 157
e 26 201
e 26 251
e 26 253
e 26 257
e 26 277
e 26 369
e 26 381
e 26 434
e 26 455
e 26 473
e 26 482
e 26 492
e 26 571
e 26 593
e 27 122
e 27 219
e 27 234
e 27 238
e 27 245
e 27 365
e 27 392
e 27 404
e 27 406
e 27 448
e 27 507
e 27 562
e 27 588
e 28 120
e 28 128
e 28 130
e 28 132
e 28 161
e 28 164
e 28 180
e 28 195
e 28 198
e 28 200
e 28 217
e 28 278
e 28 294
e 28 306
e 28 308
e 28 314
e 28 364
e 28 370
e 28 399
e 28 400
e 28 435
e 28 438
e 28 458
e 28 461
e 28 511
e 28 558
e 28 563
e 28 596
e 29 119
e 29 132
e 29 196
e 29 279
e 29 300
e 29 325
e 29 401
e 29 405
e 29 430
e 29 475
e 29 486
e 29 495
e 29 501
e 29 519
e 29 526
e 29 528
e 29 529
e 29 599
e 30 106
e 30 146
e 30 171
e 30 195
e 30 196
e 30 197
e 30 257
e 30 398
e 30 448
e 30 499
e 30 519
e 30 530
e 30 532
e 30 557
e 30 590
e 30 592
e 30 596
e 31 121
e 31 174
e 31 236
e 31 262
e 31 276
e 31 325
e 31 335
e 31 352
e 31 361
e 31 469
e 31 504
e 32 120
e 32 131
e 32 190
e 32 207
e 32 300
e 32 325
e 32 353
e 32 354
e 32 406
e 32 451
e 32 479
e 32 538
e 32 544
e 32 569
e 32 576
e 33 127
e 33 132
e 33 155
e 33 167
e 33 186
e 33 201
e 33 232
e 33 267
e 33 269
e 33 280
e 33 326
e 33 331
e 33 361
e 33 363
e 33 426
e 33 451
e 33 452
e 33 486
e 33 511
e 33 524
e 33 547
e 33 569
e 33 571
e 34 124
e 34 127
e 34 163
e 34 268
e 34 293
e 34 322
e 34 338
e 34 410
e 34 445
e 34 451
e 34 465
e 34 474
e 34 538
e 34 573
e 34 581
e 34 598
e 35 114
e 35 135
e 35 163
e 35 168
e 35 202
e 35 238
e 35 289
e 35 303
e 35 335
e 35 347
e 35 372
e 35 423
e 35 488
e 35 501
e 35 514
e 35 542
e 36 192
e 36 206
e 36 243
e 36 329
e 36 334
e 36 347
e 36 358
e 36 370
e 36 390
e 36 398
e 36 402
e 36 416
e 36 459
e 36 482
e 36 500
e 36 542
e 36 594
e 37 110
e 37 147
e 37 209
e 37 245
e 37 387
e 37 406
e 37 454
e 37 458
e 37 547
e 37 569
e 37 586
e 38 104
e 38 111
e 38 123
e 38 156
e 38 159
e 38 166
e 38 168
e 38 187
e 38 237
e 38 238
e 38 266
e 38 290
e 38 333
e 38 337
e 38 414
e 38 426
e 38 460
e 38 504
e 38 592
e 39 198
e 39 225
e 39 245
e 39 267
e 39 295
e 39 303
e 39 304
e 39 324
e 39 333
e 39 334
e 39 349
e 39 362
e 39 374
e 39 406
e 39 420
e 39 447
e 39 455
e 40 191
e 40 215
e 40 232
e 40 273
e 40 308
e 40 311
e 40 338
e 40 349
e 40 357
e 40 406
e 40 457
e 40 466
e 40 537
e 40 540
e 41 112
e 41 156
e 41 226
e 41 278
e 41 294
e 41 331
e 41 332
e 41 436
e 41 450
e 41 471
e 41 484
e 41 485
e 41 585
e 41 596
e 42 102
e 42 110
e 42 131
e 42 167
e 42 231
e 42 235
e 42 283
e 42 357
e 42 360
e 42 365
e 42 396
e 42 448
e 42 469
e 42 489
e 42 529
e 42 530
e 42 578
e 42 594
e 43 117
e 43 142
e 43 145
e 43 187
e 43 206
e 43 212
e 43 218
e 43 222
e 43 228
e 43 283
e 43 284
e 43 308
e 43 398
e 43 454
e 43 511
e 43 537
e 43 546
e 43 563
e 43 581
e 43 596
e 44 125
e 44 154
e 44 254
e 44 258
e 44 261
e 44 285
e 44 291
e 44 301
e 44 402
e 44 404
e 44 438
e 44 448
e 44 566
e 44 594
e 44 595
e 45 207
e 45 224
e 45 231
e 45 240
e 45 247
e 45 253
e 45 334
e 45 352
e 45 396
e 45 397
e 45 458
e 45 479
e 45 553
e 45 570
e 45 572
e 46 157
e 46 183
e 46 198
e 46 303
e 46 322
e 46 361
e 46 393
e 46 417
e 46 429
e 46 508
e 46 574
e 46 590
e 47 104
e 47 107
e 47 176
e 47 189
e 47 199
e 47 201
e 47 243
e 47 258
e 47 290
e 47 369
e 47 390
e 47 404
e 47 407
e 47 440
e 47 454
e 47 514
e 47 547
e 47 597
e 48 114
e 48 119
e 48 136
e 48 149
e 48 163
e 48 164
e 48 168
e 48 183
e 48 245
e 48 250
e 48 262
e 48 311
e 48 320
e 48 500
e 48 526
e 48 599
e 49 117
e 49 150
e 49 156
e 49 193
e 49 216
e 49 289
e 49 347
e 49 348
e 49 407
e 49 453
e 49 491
e 49 510
e 49 567
e 49 592
e 50 111
e 50 113
e 50 152
e 50 154
e 50 194
e 50 216
e 50 273
e 50 283
e 50 378
e 50 407
e 50 426
e 50 440
e 50 449
e 50 519
e 50 572
e 50 591
e 51 130
e 51 137
e 51 184
e 51 229
e 51 313
e 51 419
e 51 451
e 51 454
e 51 518
e 51 591
e 52 139
e 52 159
e 52 164
e 52 274
e 52 279
e 52 290
e 52 340
e 52 373
e 52 437
e 52 446
e 52 467
e 52 541
e 53 126
e 53 135
e 53 200
e 53 208
e 53 216
e 53 228
e 53 238
e 53 286
e 53 323
e 53 383
e 53 432
e 53 497
e 53 506
e 53 545
e 53 558
e 54 146
e 54 206
e 54 210
e 54 224
e 54 270
e 54 354
e 54 369
e 54 371
e 54 375
e 54 378
e 54 462
e 54 466
e 54 468
e 55 121
e 55 200
e 55 263
e 55 283
e 55 350
e 55 429
e 55 514
e 55 563
e 55 589
e 55 596
e 56 113
e 56 232
e 56 243
e 56 268
e 56 287
e 56 316
e 56 345
e 56 372
e 56 377
e 56 384
e 56 433
e 56 448
e 56 464
e 56 522
e 56 530
e 56 546
e 56 552
e 56 566
e 56 579
e 57 168
e 57 196
e 57 205
e 57 251
e 57 333
e 57 388
e 57 415
e 57 463
e 57 464
e 57 466
e 57 490
e 57 492
e 57 530
e 57 545
e 57 582
e 57 588
e 58 107
e 58 136
e 58 185
e 58 204
e 58 263
e 58 272
e 58 344
e 58 347
e 58 362
e 58 425
e 58 501
e 58 502
e 58 509
e 59 113
e 59 142
e 59 157
e 59 198
e 59 201
e 59 235
e 59 264
e 59 293
e 59 397
e 59 404
e 59 490
e 59 497
e 59 532
e 59 540
e 60 105
e 60 149
e 60 208
e 60 212
e 60 309
e 60 382
e 60 399
e 60 406
e 60 429
e 60 483
e 60 508
e 60 528
e 60 529
e 60 531
e 60 548
e 60 549
e 60 553
e 60 563
e 61 110
e 61 141
e 61 146
e 61 167
e 61 172
e 61 186
e 61 188
e 61 197
e 61 205
e 61 270
e 61 295
e 61 321
e 61 329
e 61 400
e 61 406
e 61 425
e 61 432
e 61 433
e 61 456
e 61 467
e 61 470
e 61 499
e 62 132
e 62 156
e 62 170
e 62 283
e 62 307
e 62 319
e 62 333
e 62 370
e 62 457
e 62 462
e 62 508
e 63 110
e 63 128
e 63 134
e 63 238
e 63 281
e 63 284
e 63 304
e 63 351
e 63 354
e 63 359
e 63 365
e 63 430
e 63 469
e 63 528
e 63 568
e 63 600
e 64 120
e 64 168
e 64 253
e 64 291
e 64 342
e 64 344
e 64 406
e 64 436
e 64 469
e 64 479
e 64 506
e 64 534
e 64 553
e 64 554
e 65 155
e 65 162
e 65 171
e 65 197
e 65 204
e 65 261
e 65 287
e 65 313
e 65 350
e 65 359
e 65 425
e 65 444
e 65 461
e 65 489
e 65 519
e 65 521
e 65 524
e 65 528
e 65 543
e 65 552
e 65 593
e 66 181
e 66 191
e 66 214
e 66 240
e 66 293
e 66 334
e 66 380
e 66 446
e 66 480
e 66 496
e 66 519
e 66 577
e 67 116
e 67 128
e 67 132
e 67 138
e 67 165
e 67 208
e 67 248
e 67 271
e 67 292
e 67 323
e 67 382
e 67 478
e 67 487
e 67 496
e 67 502
e 67 552
e 67 571
e 67 585
e 68 134
e 68 138
e 68 140
e 68 311
e 68 359
e 68 364
e 68 367
e 68 368
e 68 414
e 68 434
e 68 457
e 68 464
e 68 492
e 68 523
e 68 525
e 68 527
e 69 163
e 69 198
e 69 248
e 69 273
e 69 278
e 69 318
e 69 390
e 69 477
e 69 478
e 69 550
e 69 553
e 70 137
e 70 208
e 70 215
e 70 216
e 70 251
e 70 352
e 70 374
e 70 440
e 70 498
e 70 526
e 70 527
e 70 568
e 70 587
e 71 115
e 71 123
e 71 142
e 71 145
e 71 165
e 71 238
e 71 270
e 71 289
e 71 304
e 71 305
e 71 306
e 71 329
e 71 373
e 71 388
e 71 406
e 71 431
e 71 445
e 71 496
e 71 508
e 71 520
e 71 521
e 71 536
e 72 111
e 72 145
e 72 153
e 72 223
e 72 279
e 72 309
e 72 310
e 72 363
e 72 407
e 72 570
e 72 576
e 72 588
e 72 592
e 73 182
e 73 201
e 73 206
e 73 231
e 73 296
e 73 355
e 73 377
e 73 384
e 73 414
e 73 423
e 73 426
e 73 441
e 73 450
e 73 474
e 73 518
e 73 535
e 73 540
e 73 550
e 73 580
e 74 199
e 74 216
e 74 236
e 74 255
e 74 268
e 74 315
e 74 363
e 74 476
e 74 480
e 74 484
e 74 488
e 74 502
e 74 515
e 74 557
e 74 571
e 75 211
e 75 232
e 75 296
e 75 303
e 75 322
e 75 330
e 75 374
e 75 388
e 75 429
e 75 438
e 75 456
e 75 463
e 75 486
e 75 488
e 75 515
e 75 534
e 76 107
e 76 183
e 76 186
e 76 268
e 76 325
e 76 384
e 76 492
e 76 513
e 76 561
e 76 571
e 77 139
e 77 163
e 77 192
e 77 219
e 77 240
e 77 247
e 77 274
e 77 313
e 77 352
e 77 366
e 77 395
e 77 409
e 77 442
e 77 447
e 77 455
e 77 456
e 77 486
e 77 523
e 77 529
e 77 599
e 78 172
e 78 221
e 78 224
e 78 238
e 78 244
e 78 250
e 78 324
e 78 367
e 78 454
e 78 589
e 79 138
e 79 164
e 79 178
e 79 179
e 79 239
e 79 240
e 79 244
e 79 257
e 79 277
e 79 293
e 79 318
e 79 401
e 79 414
e 79 418
e 79 419
e 79 422
e 79 484
e 79 560
e 79 566
e 79 586
e 79 588
e 79 597
e 80 112
e 80 166
e 80 232
e 80 240
e 80 270
e 80 274
e 80 295
e 80 307
e 80 314
e 80 341
e 80 351
e 80 434
e 80 453
e 80 472
e 80 482
e 80 501
e 80 557
e 80 561
e 80 572
e 81 154
e 81 191
e 81 194
e 81 208
e 81 228
e 81 242
e 81 307
e 81 321
e 81 402
e 81 435
e 81 444
e 81 506
e 81 518
e 81 559
e 82 136
e 82 145
e 82 303
e 82 312
e 82 326
e 82 330
e 82 349
e 82 374
e 82 393
e 82 481
e 82 494
e 82 521
e 82 558
e 82 573
e 82 576
e 82 582
e 82 590
e 83 110
e 83 168
e 83 169
e 83 197
e 83 226
e 83 261
e 83 267
e 83 301
e 83 307
e 83 339
e 83 347
e 83 399
e 83 409
e 83 463
e 83 472
e 83 479
e 83 505
e 83 507
e 83 550
e 83 578
e 84 101
e 84 128
e 84 133
e 84 138
e 84 146
e 84 152
e 84 165
e 84 315
e 84 361
e 84 383
e 84 412
e 84 424
e 84 556
e 84 561
e 84 593
e 85 137
e 85 138
e 85 194
e 85 199
e 85 201
e 85 217
e 85 307
e 85 331
e 85 355
e 85 394
e 85 516
e 85 572
e 86 114
e 86 155
e 86 175
e 86 180
e 86 247
e 86 252
e 86 255
e 86 273
e 86 294
e 86 315
e 86 328
e 86 339
e 86 343
e 86 363
e 86 379
e 86 395
e 86 410
e 86 431
e 86 458
e 86 480
e 86 497
e 86 516
e 86 539
e 86 572
e 86 581
e 87 116
e 87 131
e 87 155
e 87 174
e 87 332
e 87 353
e 87 431
e 87 450
e 87 564
e 88 107
e 88 114
e 88 116
e 88 120
e 88 140
e 88 151
e 88 184
e 88 236
e 88 274
e 88 312
e 88 367
e 88 398
e 88 430
e 88 493
e 88 586
e 89 149
e 89 177
e 89 179
e 89 194
e 89 197
e 89 229
e 89 275
e 89 297
e 89 316
e 89 321
e 89 414
e 89 423
e 89 430
e 89 435
e 89 469
e 89 527
e 89 546
e 89 562
e 89 593
e 90 123
e 90 177
e 90 256
e 90 267
e 90 275
e 90 342
e 90 415
e 90 502
e 90 513
e 90 516
e 90 539
e 90 551
e 90 558
e 90 582
e 91 146
e 91 156
e 91 244
e 91 261
e 91 277
e 91 303
e 91 315
e 91 326
e 91 386
e 91 419
e 91 427
e 91 473
e 91 501
e 91 565
e 91 576
e 92 114
e 92 121
e 92 204
e 92 241
e 92 247
e 92 296
e 92 345
e 92 361
e 92 390
e 92 429
e 92 462
e 92 500
e 92 508
e 92 516
e 92 571
e 93 111
e 93 143
e 93 152
e 93 196
e 93 208
e 93 239
e 93 252
e 93 306
e 93 334
e 93 335
e 93 339
e 93 345
e 93 409
e 93 429
e 93 496
e 93 524
e 93 550
e 93 566
e 94 106
e 94 125
e 94 197
e 94 198
e 94 252
e 94 282
e 94 318
e 94 342
e 94 347
e 94 459
e 94 505
e 94 514
e 94 522
e 94 566
e 95 101
e 95 158
e 95 173
e 95 181
e 95 206
e 95 218
e 95 224
e 95 273
e 95 316
e 95 344
e 95 352
e 95 394
e 95 447
e 95 454
e 95 465
e 95 487
e 95 495
e 95 561
e 95 600
e 96 149
e 96 165
e 96 197
e 96 254
e 96 282
e 96 289
e 96 324
e 96 342
e 96 356
e 96 415
e 96 418
e 96 450
e 96 468
e 96 518
e 96 550
e 96 562
e 96 565
e 96 595
e 97 134
e 97 179
e 97 191
e 97 215
e 97 224
e 97 272
e 97 276
e 97 290
e 97 307
e 97 309
e 97 337
e 97 443
e 97 461
e 97 488
e 97 511
e 97 530
e 97 534
e 97 540
e 98 106
e 98 156
e 98 258
e 98 294
e 98 439
e 98 525
e 98 562
e 99 113
e 99 129
e 99 139
e 99 150
e 99 151
e 99 175
e 99 181
e 99 205
e 99 396
e 99 438
e 99 445
e 100 109
e 100 122
e 100 129
e 100 184
e 100 225
e 100 234
e 100 248
e 100 305
e 100 320
e 100 388
e 100 398
e 100 399
e 100 446
e 100 512
